Traveling Salesman Problem/TSP_generados/Aleatorio1621103299_8.tsp
NAME: Aleatorio1621103299_8.tsp
COMMENT: Randomly generated scenario
TYPE: TSP
DIMENSION: 8
EDGE_WEIGHT_TYPE: ATT
NODE_COORD_SECTION
1 28.29 31.72
2 17.46 14.16
3 49.02 21.39
4 25.17 13.36
5 15.98 8.38
6 16.99 29.39
7 48.19 10.59
8 33.4 9.24
