Traveling Salesman Problem/TSP_generados/Aleatorio1621103299_8.opt.tour
NAME: Aleatorio1621103299_8.opt.tour
COMMENT: Optimal solution for Aleatorio1621103299_8 (101.2422247155146)
TYPE: TOUR
DIMENSION: 8
TOUR_SECTION
1 6 2 5 4 8 7 3
-1
EOF
